Version identifier: 22.1.1.0 | 2022-11-28 | 9160aff4d
CPXPARAM_ClockType                               1
CPXPARAM_Read_DataCheck                          1
CPXPARAM_Threads                                 1
CPXPARAM_TimeLimit                               7200
CPXPARAM_MIP_Tolerances_AbsMIPGap                0
CPXPARAM_MIP_Tolerances_MIPGap                   0
CPXPARAM_MIP_Tolerances_Integrality              0
Tried aggregator 2 times.
MIP Presolve eliminated 6027 rows and 9 columns.
MIP Presolve modified 8018 coefficients.
Aggregator did 4000 substitutions.
Reduced MIP has 76464 rows, 28991 columns, and 258356 nonzeros.
Reduced MIP has 28991 binaries, 0 generals, 0 SOSs, and 0 indicators.
Presolve time = 0.36 sec. (181.07 ticks)
Probing time = 0.03 sec. (10.44 ticks)
Tried aggregator 1 time.
Detecting symmetries...
MIP Presolve eliminated 0 rows and 1 columns.
Reduced MIP has 76464 rows, 28990 columns, and 258355 nonzeros.
Reduced MIP has 28990 binaries, 0 generals, 0 SOSs, and 0 indicators.
Presolve time = 0.35 sec. (142.86 ticks)
Probing time = 0.03 sec. (9.66 ticks)
Clique table members: 1199.
MIP emphasis: balance optimality and feasibility.
MIP search method: dynamic search.
Parallel mode: none, using 1 thread.
Root relaxation solution time = 7213.87 sec. (2921242.31 ticks)

        Nodes                                         Cuts/
   Node  Left     Objective  IInf  Best Integer    Best Bound    ItCnt     Gap

      0     0   1.00000e+37     0                  65000.0000  1750438         

Root node processing (before b&c):
  Real time             = 7216.06 sec. (2922483.12 ticks)
Sequential b&c:
  Real time             =    0.00 sec. (0.00 ticks)
                          ------------
Total (root+branch&cut) = 7216.06 sec. (2922483.12 ticks)
Solution is infeasible.

---------------------
@@@ MIP_time_limit_infeasible
Traceback (most recent call last):
  File "/scratch/scherif/DiverseSAT-journal_sup/DiverseSAT_Supplementary_Experiments/experiment-1/cplex/jobs/../solvers/CPLEX-BIN-SE.py", line 134, in <module>
    print(f">>> Benchmark {os.path.basename(cnf_file)} k {k} OPT {int(prob.solution.get_objective_value())}"
  File "/users/scherif/.local/lib/python3.9/site-packages/cplex/_internal/_subinterfaces.py", line 7211, in get_objective_value
    return CPX_PROC.getobjval(self._env._e, self._cplex._lp)
  File "/users/scherif/.local/lib/python3.9/site-packages/cplex/_internal/_procedural.py", line 2055, in getobjval
    check_status(env, status)
  File "/users/scherif/.local/lib/python3.9/site-packages/cplex/_internal/_procedural.py", line 249, in __call__
    raise CplexSolverError(error_string, env, status)
cplex.exceptions.errors.CplexSolverError: CPLEX Error  1217: No solution exists.
